language Essence 1.3
letting nnodes be 80
letting nrings be 60
letting capacity be 60
letting demand be 
{{1, 2},
{1, 9},
{1, 11},
{1, 12},
{1, 13},
{1, 15},
{1, 17},
{1, 19},
{1, 20},
{1, 21},
{1, 22},
{1, 23},
{1, 26},
{1, 27},
{1, 28},
{1, 30},
{1, 32},
{1, 34},
{1, 35},
{1, 37},
{1, 39},
{1, 44},
{1, 49},
{1, 50},
{1, 52},
{1, 53},
{1, 54},
{1, 55},
{1, 56},
{1, 57},
{1, 59},
{1, 60},
{1, 61},
{1, 62},
{1, 65},
{1, 66},
{1, 67},
{1, 69},
{1, 70},
{1, 71},
{1, 74},
{1, 75},
{1, 77},
{1, 80},
{2, 3},
{2, 4},
{2, 5},
{2, 6},
{2, 9},
{2, 10},
{2, 11},
{2, 14},
{2, 16},
{2, 18},
{2, 20},
{2, 22},
{2, 23},
{2, 24},
{2, 29},
{2, 34},
{2, 37},
{2, 41},
{2, 42},
{2, 45},
{2, 46},
{2, 49},
{2, 50},
{2, 53},
{2, 55},
{2, 56},
{2, 58},
{2, 59},
{2, 61},
{2, 64},
{2, 65},
{2, 66},
{2, 71},
{2, 72},
{2, 73},
{2, 74},
{2, 76},
{2, 77},
{3, 7},
{3, 9},
{3, 10},
{3, 12},
{3, 13},
{3, 16},
{3, 20},
{3, 21},
{3, 22},
{3, 24},
{3, 25},
{3, 26},
{3, 30},
{3, 31},
{3, 32},
{3, 34},
{3, 35},
{3, 36},
{3, 38},
{3, 42},
{3, 43},
{3, 44},
{3, 48},
{3, 53},
{3, 54},
{3, 55},
{3, 56},
{3, 57},
{3, 58},
{3, 60},
{3, 61},
{3, 62},
{3, 65},
{3, 66},
{3, 71},
{3, 73},
{3, 74},
{3, 76},
{3, 77},
{4, 5},
{4, 11},
{4, 12},
{4, 14},
{4, 15},
{4, 16},
{4, 19},
{4, 21},
{4, 23},
{4, 24},
{4, 27},
{4, 28},
{4, 31},
{4, 33},
{4, 35},
{4, 36},
{4, 38},
{4, 43},
{4, 45},
{4, 46},
{4, 47},
{4, 48},
{4, 51},
{4, 53},
{4, 57},
{4, 60},
{4, 62},
{4, 63},
{4, 68},
{4, 71},
{4, 72},
{4, 73},
{4, 76},
{4, 77},
{4, 79},
{4, 80},
{5, 7},
{5, 8},
{5, 11},
{5, 14},
{5, 20},
{5, 21},
{5, 23},
{5, 27},
{5, 29},
{5, 30},
{5, 34},
{5, 37},
{5, 41},
{5, 45},
{5, 46},
{5, 47},
{5, 49},
{5, 50},
{5, 51},
{5, 52},
{5, 53},
{5, 54},
{5, 55},
{5, 57},
{5, 58},
{5, 60},
{5, 61},
{5, 64},
{5, 65},
{5, 66},
{5, 67},
{5, 68},
{5, 70},
{5, 72},
{5, 74},
{5, 75},
{5, 76},
{6, 7},
{6, 9},
{6, 11},
{6, 12},
{6, 15},
{6, 17},
{6, 18},
{6, 21},
{6, 22},
{6, 23},
{6, 24},
{6, 25},
{6, 26},
{6, 27},
{6, 28},
{6, 31},
{6, 33},
{6, 36},
{6, 42},
{6, 45},
{6, 46},
{6, 47},
{6, 48},
{6, 50},
{6, 52},
{6, 53},
{6, 54},
{6, 56},
{6, 57},
{6, 59},
{6, 60},
{6, 63},
{6, 64},
{6, 69},
{6, 70},
{6, 72},
{6, 73},
{6, 74},
{6, 77},
{6, 78},
{6, 79},
{6, 80},
{7, 8},
{7, 14},
{7, 15},
{7, 16},
{7, 19},
{7, 20},
{7, 21},
{7, 26},
{7, 27},
{7, 29},
{7, 31},
{7, 32},
{7, 35},
{7, 36},
{7, 39},
{7, 40},
{7, 44},
{7, 46},
{7, 47},
{7, 49},
{7, 52},
{7, 54},
{7, 55},
{7, 57},
{7, 58},
{7, 62},
{7, 67},
{7, 69},
{7, 71},
{7, 73},
{8, 11},
{8, 12},
{8, 13},
{8, 14},
{8, 20},
{8, 21},
{8, 22},
{8, 23},
{8, 26},
{8, 27},
{8, 28},
{8, 29},
{8, 31},
{8, 32},
{8, 35},
{8, 36},
{8, 40},
{8, 48},
{8, 49},
{8, 51},
{8, 52},
{8, 53},
{8, 56},
{8, 58},
{8, 61},
{8, 64},
{8, 65},
{8, 66},
{8, 68},
{8, 70},
{8, 76},
{8, 77},
{8, 78},
{8, 79},
{8, 80},
{9, 12},
{9, 13},
{9, 17},
{9, 18},
{9, 20},
{9, 21},
{9, 23},
{9, 27},
{9, 29},
{9, 33},
{9, 34},
{9, 35},
{9, 38},
{9, 39},
{9, 40},
{9, 43},
{9, 46},
{9, 50},
{9, 52},
{9, 54},
{9, 55},
{9, 56},
{9, 57},
{9, 58},
{9, 62},
{9, 63},
{9, 65},
{9, 67},
{9, 70},
{9, 72},
{9, 74},
{9, 76},
{9, 80},
{10, 12},
{10, 13},
{10, 14},
{10, 16},
{10, 19},
{10, 20},
{10, 22},
{10, 26},
{10, 27},
{10, 28},
{10, 29},
{10, 33},
{10, 36},
{10, 38},
{10, 44},
{10, 46},
{10, 51},
{10, 52},
{10, 53},
{10, 61},
{10, 62},
{10, 71},
{10, 72},
{10, 73},
{10, 74},
{10, 75},
{10, 78},
{10, 80},
{11, 12},
{11, 13},
{11, 15},
{11, 16},
{11, 19},
{11, 21},
{11, 22},
{11, 24},
{11, 25},
{11, 26},
{11, 27},
{11, 31},
{11, 32},
{11, 35},
{11, 40},
{11, 43},
{11, 44},
{11, 45},
{11, 46},
{11, 49},
{11, 51},
{11, 52},
{11, 53},
{11, 55},
{11, 56},
{11, 57},
{11, 58},
{11, 63},
{11, 65},
{11, 66},
{11, 67},
{11, 71},
{11, 72},
{11, 73},
{11, 74},
{11, 76},
{11, 77},
{11, 78},
{11, 80},
{12, 13},
{12, 15},
{12, 20},
{12, 23},
{12, 25},
{12, 27},
{12, 28},
{12, 31},
{12, 33},
{12, 35},
{12, 36},
{12, 37},
{12, 38},
{12, 39},
{12, 41},
{12, 44},
{12, 46},
{12, 47},
{12, 53},
{12, 54},
{12, 59},
{12, 60},
{12, 62},
{12, 63},
{12, 64},
{12, 66},
{12, 71},
{12, 77},
{13, 14},
{13, 15},
{13, 16},
{13, 17},
{13, 20},
{13, 21},
{13, 23},
{13, 24},
{13, 25},
{13, 30},
{13, 33},
{13, 34},
{13, 35},
{13, 37},
{13, 38},
{13, 39},
{13, 42},
{13, 43},
{13, 44},
{13, 46},
{13, 47},
{13, 48},
{13, 49},
{13, 50},
{13, 51},
{13, 54},
{13, 57},
{13, 59},
{13, 60},
{13, 61},
{13, 62},
{13, 63},
{13, 68},
{13, 69},
{13, 74},
{13, 75},
{14, 18},
{14, 20},
{14, 21},
{14, 22},
{14, 23},
{14, 25},
{14, 27},
{14, 28},
{14, 29},
{14, 31},
{14, 32},
{14, 33},
{14, 34},
{14, 35},
{14, 41},
{14, 42},
{14, 44},
{14, 47},
{14, 53},
{14, 54},
{14, 55},
{14, 58},
{14, 60},
{14, 64},
{14, 65},
{14, 67},
{14, 69},
{14, 70},
{14, 72},
{14, 73},
{14, 74},
{15, 16},
{15, 18},
{15, 19},
{15, 25},
{15, 26},
{15, 27},
{15, 28},
{15, 31},
{15, 32},
{15, 33},
{15, 36},
{15, 37},
{15, 38},
{15, 39},
{15, 43},
{15, 44},
{15, 47},
{15, 48},
{15, 50},
{15, 51},
{15, 52},
{15, 54},
{15, 56},
{15, 59},
{15, 60},
{15, 61},
{15, 65},
{15, 69},
{15, 70},
{15, 71},
{15, 72},
{15, 73},
{15, 75},
{15, 77},
{15, 79},
{16, 17},
{16, 18},
{16, 20},
{16, 23},
{16, 27},
{16, 28},
{16, 29},
{16, 30},
{16, 34},
{16, 35},
{16, 36},
{16, 37},
{16, 38},
{16, 39},
{16, 41},
{16, 43},
{16, 46},
{16, 47},
{16, 49},
{16, 51},
{16, 54},
{16, 56},
{16, 57},
{16, 58},
{16, 59},
{16, 63},
{16, 66},
{16, 69},
{16, 71},
{16, 72},
{16, 75},
{16, 77},
{16, 79},
{16, 80},
{17, 19},
{17, 21},
{17, 23},
{17, 24},
{17, 25},
{17, 26},
{17, 27},
{17, 28},
{17, 31},
{17, 33},
{17, 36},
{17, 38},
{17, 40},
{17, 41},
{17, 42},
{17, 43},
{17, 46},
{17, 48},
{17, 52},
{17, 55},
{17, 57},
{17, 59},
{17, 60},
{17, 62},
{17, 64},
{17, 65},
{17, 66},
{17, 69},
{17, 70},
{17, 72},
{17, 75},
{17, 80},
{18, 19},
{18, 21},
{18, 22},
{18, 23},
{18, 24},
{18, 26},
{18, 28},
{18, 33},
{18, 34},
{18, 37},
{18, 38},
{18, 39},
{18, 40},
{18, 42},
{18, 43},
{18, 44},
{18, 46},
{18, 48},
{18, 50},
{18, 51},
{18, 52},
{18, 57},
{18, 59},
{18, 61},
{18, 62},
{18, 63},
{18, 64},
{18, 71},
{18, 72},
{18, 73},
{18, 77},
{18, 78},
{18, 80},
{19, 21},
{19, 22},
{19, 24},
{19, 33},
{19, 34},
{19, 35},
{19, 38},
{19, 40},
{19, 43},
{19, 45},
{19, 47},
{19, 48},
{19, 49},
{19, 50},
{19, 51},
{19, 53},
{19, 54},
{19, 55},
{19, 57},
{19, 58},
{19, 59},
{19, 61},
{19, 62},
{19, 68},
{19, 70},
{19, 71},
{19, 72},
{19, 73},
{19, 76},
{19, 79},
{20, 21},
{20, 24},
{20, 27},
{20, 33},
{20, 34},
{20, 35},
{20, 37},
{20, 38},
{20, 41},
{20, 42},
{20, 43},
{20, 45},
{20, 47},
{20, 50},
{20, 51},
{20, 52},
{20, 53},
{20, 54},
{20, 55},
{20, 56},
{20, 57},
{20, 59},
{20, 60},
{20, 61},
{20, 62},
{20, 63},
{20, 68},
{20, 69},
{20, 70},
{20, 71},
{20, 78},
{20, 80},
{21, 23},
{21, 25},
{21, 27},
{21, 32},
{21, 33},
{21, 37},
{21, 39},
{21, 40},
{21, 42},
{21, 44},
{21, 57},
{21, 58},
{21, 59},
{21, 60},
{21, 62},
{21, 63},
{21, 69},
{21, 74},
{21, 76},
{22, 24},
{22, 26},
{22, 27},
{22, 28},
{22, 29},
{22, 30},
{22, 32},
{22, 35},
{22, 41},
{22, 42},
{22, 43},
{22, 47},
{22, 52},
{22, 53},
{22, 55},
{22, 57},
{22, 59},
{22, 62},
{22, 65},
{22, 66},
{22, 67},
{22, 68},
{22, 69},
{22, 71},
{22, 72},
{22, 74},
{22, 75},
{22, 76},
{22, 77},
{22, 79},
{23, 26},
{23, 28},
{23, 31},
{23, 35},
{23, 41},
{23, 45},
{23, 49},
{23, 50},
{23, 53},
{23, 56},
{23, 57},
{23, 60},
{23, 61},
{23, 62},
{23, 67},
{23, 68},
{23, 71},
{23, 73},
{23, 80},
{24, 27},
{24, 29},
{24, 30},
{24, 31},
{24, 34},
{24, 35},
{24, 36},
{24, 38},
{24, 40},
{24, 47},
{24, 48},
{24, 49},
{24, 50},
{24, 51},
{24, 52},
{24, 53},
{24, 55},
{24, 57},
{24, 58},
{24, 59},
{24, 61},
{24, 63},
{24, 64},
{24, 68},
{24, 70},
{24, 73},
{24, 74},
{24, 75},
{24, 76},
{24, 77},
{24, 78},
{25, 26},
{25, 30},
{25, 31},
{25, 33},
{25, 34},
{25, 39},
{25, 40},
{25, 41},
{25, 43},
{25, 50},
{25, 51},
{25, 53},
{25, 55},
{25, 57},
{25, 58},
{25, 62},
{25, 63},
{25, 64},
{25, 65},
{25, 66},
{25, 67},
{25, 70},
{25, 71},
{25, 72},
{25, 76},
{25, 78},
{25, 80},
{26, 27},
{26, 28},
{26, 30},
{26, 31},
{26, 32},
{26, 33},
{26, 35},
{26, 36},
{26, 37},
{26, 40},
{26, 41},
{26, 43},
{26, 46},
{26, 50},
{26, 51},
{26, 55},
{26, 56},
{26, 57},
{26, 58},
{26, 61},
{26, 66},
{26, 67},
{26, 69},
{26, 70},
{26, 71},
{26, 76},
{26, 77},
{26, 79},
{26, 80},
{27, 29},
{27, 30},
{27, 31},
{27, 32},
{27, 33},
{27, 35},
{27, 37},
{27, 40},
{27, 42},
{27, 46},
{27, 47},
{27, 49},
{27, 50},
{27, 52},
{27, 54},
{27, 57},
{27, 59},
{27, 60},
{27, 61},
{27, 62},
{27, 67},
{27, 68},
{27, 70},
{27, 77},
{27, 78},
{27, 79},
{27, 80},
{28, 31},
{28, 33},
{28, 35},
{28, 36},
{28, 37},
{28, 38},
{28, 39},
{28, 40},
{28, 41},
{28, 43},
{28, 44},
{28, 45},
{28, 46},
{28, 50},
{28, 53},
{28, 55},
{28, 57},
{28, 58},
{28, 59},
{28, 60},
{28, 61},
{28, 63},
{28, 68},
{28, 69},
{28, 71},
{28, 72},
{28, 74},
{28, 75},
{28, 80},
{29, 30},
{29, 35},
{29, 38},
{29, 39},
{29, 40},
{29, 41},
{29, 43},
{29, 45},
{29, 47},
{29, 49},
{29, 52},
{29, 56},
{29, 57},
{29, 59},
{29, 62},
{29, 63},
{29, 64},
{29, 65},
{29, 66},
{29, 68},
{29, 69},
{29, 70},
{29, 71},
{29, 74},
{29, 76},
{29, 77},
{29, 78},
{30, 35},
{30, 36},
{30, 38},
{30, 39},
{30, 41},
{30, 43},
{30, 46},
{30, 48},
{30, 49},
{30, 51},
{30, 52},
{30, 56},
{30, 57},
{30, 59},
{30, 61},
{30, 62},
{30, 65},
{30, 66},
{30, 67},
{30, 68},
{30, 70},
{30, 71},
{30, 74},
{30, 75},
{30, 78},
{30, 79},
{30, 80},
{31, 33},
{31, 34},
{31, 38},
{31, 41},
{31, 44},
{31, 49},
{31, 50},
{31, 53},
{31, 54},
{31, 55},
{31, 56},
{31, 60},
{31, 61},
{31, 62},
{31, 66},
{31, 69},
{31, 72},
{31, 76},
{31, 78},
{31, 79},
{32, 33},
{32, 34},
{32, 35},
{32, 36},
{32, 38},
{32, 40},
{32, 42},
{32, 45},
{32, 50},
{32, 51},
{32, 52},
{32, 53},
{32, 56},
{32, 57},
{32, 59},
{32, 62},
{32, 67},
{32, 68},
{32, 72},
{32, 73},
{32, 74},
{32, 75},
{32, 76},
{32, 77},
{32, 79},
{33, 39},
{33, 41},
{33, 42},
{33, 45},
{33, 46},
{33, 49},
{33, 50},
{33, 55},
{33, 56},
{33, 57},
{33, 59},
{33, 61},
{33, 62},
{33, 80},
{34, 37},
{34, 38},
{34, 40},
{34, 42},
{34, 43},
{34, 44},
{34, 45},
{34, 47},
{34, 50},
{34, 52},
{34, 53},
{34, 54},
{34, 56},
{34, 59},
{34, 60},
{34, 61},
{34, 63},
{34, 66},
{34, 67},
{34, 72},
{34, 73},
{34, 74},
{34, 75},
{34, 77},
{34, 79},
{35, 37},
{35, 39},
{35, 41},
{35, 45},
{35, 46},
{35, 49},
{35, 50},
{35, 51},
{35, 52},
{35, 53},
{35, 56},
{35, 57},
{35, 62},
{35, 64},
{35, 66},
{35, 69},
{35, 70},
{35, 71},
{35, 73},
{35, 75},
{35, 76},
{35, 77},
{35, 78},
{35, 80},
{36, 37},
{36, 38},
{36, 42},
{36, 44},
{36, 45},
{36, 47},
{36, 48},
{36, 50},
{36, 51},
{36, 52},
{36, 54},
{36, 55},
{36, 56},
{36, 57},
{36, 58},
{36, 61},
{36, 62},
{36, 64},
{36, 65},
{36, 67},
{36, 69},
{36, 70},
{36, 71},
{36, 73},
{36, 74},
{36, 76},
{36, 77},
{36, 78},
{36, 80},
{37, 40},
{37, 41},
{37, 43},
{37, 47},
{37, 48},
{37, 53},
{37, 56},
{37, 57},
{37, 59},
{37, 61},
{37, 66},
{37, 68},
{37, 69},
{37, 70},
{37, 75},
{37, 76},
{37, 79},
{37, 80},
{38, 40},
{38, 44},
{38, 45},
{38, 47},
{38, 52},
{38, 53},
{38, 58},
{38, 62},
{38, 63},
{38, 65},
{38, 67},
{38, 71},
{38, 73},
{38, 74},
{38, 75},
{38, 76},
{38, 77},
{38, 78},
{38, 79},
{38, 80},
{39, 42},
{39, 45},
{39, 46},
{39, 50},
{39, 51},
{39, 55},
{39, 60},
{39, 61},
{39, 62},
{39, 64},
{39, 65},
{39, 67},
{39, 72},
{39, 73},
{39, 78},
{39, 79},
{39, 80},
{40, 41},
{40, 42},
{40, 44},
{40, 46},
{40, 48},
{40, 54},
{40, 58},
{40, 59},
{40, 61},
{40, 62},
{40, 67},
{40, 68},
{40, 70},
{40, 71},
{40, 74},
{40, 76},
{40, 77},
{40, 79},
{41, 46},
{41, 47},
{41, 49},
{41, 52},
{41, 53},
{41, 55},
{41, 56},
{41, 57},
{41, 60},
{41, 62},
{41, 63},
{41, 65},
{41, 66},
{41, 67},
{41, 69},
{41, 71},
{41, 72},
{41, 74},
{41, 76},
{41, 78},
{42, 45},
{42, 48},
{42, 50},
{42, 51},
{42, 52},
{42, 54},
{42, 58},
{42, 59},
{42, 60},
{42, 61},
{42, 62},
{42, 64},
{42, 72},
{42, 73},
{42, 74},
{42, 76},
{42, 77},
{42, 79},
{43, 44},
{43, 45},
{43, 46},
{43, 47},
{43, 50},
{43, 51},
{43, 53},
{43, 56},
{43, 60},
{43, 64},
{43, 66},
{43, 67},
{43, 68},
{43, 69},
{43, 70},
{43, 71},
{43, 72},
{43, 73},
{43, 76},
{44, 48},
{44, 49},
{44, 51},
{44, 52},
{44, 54},
{44, 55},
{44, 59},
{44, 61},
{44, 64},
{44, 65},
{44, 67},
{44, 71},
{44, 73},
{44, 76},
{44, 79},
{44, 80},
{45, 46},
{45, 47},
{45, 49},
{45, 51},
{45, 53},
{45, 55},
{45, 56},
{45, 58},
{45, 59},
{45, 61},
{45, 62},
{45, 63},
{45, 65},
{45, 66},
{45, 69},
{45, 70},
{45, 71},
{45, 72},
{45, 75},
{45, 76},
{45, 78},
{45, 80},
{46, 47},
{46, 48},
{46, 49},
{46, 51},
{46, 54},
{46, 55},
{46, 56},
{46, 58},
{46, 60},
{46, 65},
{46, 66},
{46, 67},
{46, 68},
{46, 71},
{46, 72},
{46, 73},
{46, 74},
{46, 75},
{46, 78},
{46, 79},
{47, 52},
{47, 53},
{47, 54},
{47, 58},
{47, 59},
{47, 60},
{47, 63},
{47, 67},
{47, 72},
{47, 73},
{47, 74},
{47, 75},
{47, 76},
{47, 77},
{47, 79},
{48, 49},
{48, 50},
{48, 56},
{48, 57},
{48, 59},
{48, 61},
{48, 62},
{48, 63},
{48, 64},
{48, 67},
{48, 68},
{48, 69},
{48, 71},
{48, 73},
{48, 74},
{48, 75},
{48, 79},
{48, 80},
{49, 51},
{49, 53},
{49, 57},
{49, 58},
{49, 61},
{49, 62},
{49, 65},
{49, 66},
{49, 68},
{49, 69},
{49, 70},
{49, 71},
{49, 73},
{49, 74},
{49, 75},
{49, 76},
{49, 79},
{50, 56},
{50, 64},
{50, 65},
{50, 67},
{50, 68},
{50, 69},
{50, 70},
{50, 71},
{50, 73},
{50, 74},
{50, 75},
{50, 77},
{50, 78},
{50, 79},
{50, 80},
{51, 52},
{51, 53},
{51, 55},
{51, 56},
{51, 58},
{51, 64},
{51, 66},
{51, 68},
{51, 73},
{51, 76},
{51, 79},
{52, 53},
{52, 54},
{52, 57},
{52, 58},
{52, 60},
{52, 62},
{52, 63},
{52, 64},
{52, 65},
{52, 70},
{52, 73},
{52, 75},
{53, 56},
{53, 58},
{53, 61},
{53, 62},
{53, 64},
{53, 65},
{53, 68},
{53, 70},
{53, 72},
{53, 73},
{53, 77},
{53, 78},
{53, 79},
{54, 55},
{54, 56},
{54, 58},
{54, 59},
{54, 66},
{54, 68},
{54, 69},
{54, 70},
{54, 72},
{54, 73},
{54, 75},
{54, 76},
{54, 79},
{55, 56},
{55, 57},
{55, 61},
{55, 62},
{55, 64},
{55, 65},
{55, 66},
{55, 67},
{55, 68},
{55, 73},
{55, 74},
{55, 76},
{55, 77},
{55, 78},
{56, 59},
{56, 61},
{56, 62},
{56, 63},
{56, 64},
{56, 65},
{56, 66},
{56, 68},
{56, 70},
{56, 71},
{56, 73},
{56, 74},
{56, 75},
{57, 60},
{57, 62},
{57, 63},
{57, 65},
{57, 71},
{57, 76},
{57, 77},
{57, 78},
{57, 79},
{58, 60},
{58, 66},
{58, 67},
{58, 69},
{58, 73},
{58, 75},
{58, 78},
{59, 60},
{59, 61},
{59, 63},
{59, 64},
{59, 67},
{59, 68},
{59, 69},
{59, 70},
{59, 72},
{59, 73},
{59, 75},
{59, 76},
{59, 77},
{59, 78},
{59, 79},
{60, 63},
{60, 64},
{60, 65},
{60, 66},
{60, 67},
{60, 68},
{60, 70},
{60, 74},
{60, 76},
{60, 78},
{60, 79},
{61, 64},
{61, 65},
{61, 68},
{61, 70},
{61, 74},
{61, 75},
{61, 77},
{61, 78},
{62, 63},
{62, 64},
{62, 65},
{62, 66},
{62, 68},
{62, 69},
{62, 71},
{62, 73},
{62, 74},
{62, 75},
{62, 76},
{62, 77},
{62, 78},
{62, 79},
{63, 64},
{63, 65},
{63, 66},
{63, 68},
{63, 69},
{63, 70},
{63, 71},
{63, 73},
{63, 74},
{63, 75},
{63, 78},
{63, 79},
{64, 65},
{64, 66},
{64, 67},
{64, 68},
{64, 70},
{64, 75},
{64, 76},
{65, 66},
{65, 70},
{65, 71},
{65, 73},
{65, 75},
{65, 77},
{65, 78},
{65, 80},
{66, 71},
{66, 75},
{66, 76},
{66, 80},
{67, 68},
{67, 72},
{67, 74},
{67, 75},
{67, 76},
{67, 77},
{67, 79},
{68, 76},
{68, 77},
{68, 78},
{68, 79},
{68, 80},
{69, 70},
{69, 71},
{69, 72},
{69, 73},
{69, 76},
{69, 78},
{69, 79},
{70, 73},
{70, 75},
{70, 76},
{70, 77},
{70, 78},
{70, 79},
{71, 77},
{71, 79},
{71, 80},
{72, 74},
{72, 75},
{72, 78},
{72, 80},
{73, 75},
{73, 76},
{73, 77},
{73, 80},
{74, 76},
{74, 77},
{74, 80},
{75, 76},
{75, 77},
{75, 78},
{75, 79},
{75, 80},
{76, 77},
{76, 80},
{77, 78},
{77, 79},
{77, 80},
{78, 79},
{78, 80}}
